c Reduced graph for queen8_8g generated by Cyril Grelier
p edge 64 728
e 1 2
e 1 4
e 1 5
e 1 6
e 1 9
e 1 15
e 1 18
e 1 28
e 1 30
e 1 33
e 1 35
e 1 36
e 1 37
e 1 38
e 1 40
e 1 41
e 1 42
e 1 43
e 1 47
e 1 55
e 1 59
e 1 60
e 1 62
e 2 3
e 2 5
e 2 6
e 2 11
e 2 14
e 2 16
e 2 17
e 2 20
e 2 21
e 2 26
e 2 28
e 2 30
e 2 35
e 2 36
e 2 40
e 2 44
e 2 45
e 2 46
e 2 54
e 2 56
e 2 58
e 2 59
e 3 6
e 3 7
e 3 9
e 3 10
e 3 11
e 3 14
e 3 15
e 3 16
e 3 17
e 3 18
e 3 19
e 3 22
e 3 23
e 3 27
e 3 32
e 3 47
e 3 48
e 3 49
e 3 56
e 3 59
e 3 60
e 3 64
e 4 5
e 4 18
e 4 19
e 4 20
e 4 22
e 4 25
e 4 28
e 4 29
e 4 33
e 4 35
e 4 37
e 4 38
e 4 40
e 4 41
e 4 50
e 4 51
e 4 52
e 4 58
e 4 59
e 4 61
e 5 7
e 5 13
e 5 14
e 5 19
e 5 24
e 5 27
e 5 28
e 5 29
e 5 30
e 5 34
e 5 36
e 5 39
e 5 41
e 5 42
e 5 50
e 5 51
e 5 56
e 5 61
e 6 8
e 6 11
e 6 16
e 6 20
e 6 28
e 6 30
e 6 32
e 6 40
e 6 41
e 6 42
e 6 43
e 6 50
e 6 53
e 6 56
e 6 59
e 6 60
e 6 62
e 6 63
e 7 9
e 7 10
e 7 12
e 7 14
e 7 15
e 7 21
e 7 24
e 7 25
e 7 29
e 7 31
e 7 37
e 7 42
e 7 46
e 7 47
e 7 52
e 7 56
e 7 57
e 7 62
e 7 63
e 8 16
e 8 17
e 8 19
e 8 20
e 8 23
e 8 26
e 8 30
e 8 32
e 8 33
e 8 36
e 8 38
e 8 39
e 8 42
e 8 46
e 8 47
e 8 50
e 8 52
e 8 53
e 8 59
e 8 63
e 9 11
e 9 12
e 9 15
e 9 17
e 9 18
e 9 21
e 9 27
e 9 28
e 9 29
e 9 31
e 9 32
e 9 36
e 9 47
e 9 48
e 9 49
e 9 52
e 9 55
e 9 62
e 10 11
e 10 12
e 10 16
e 10 27
e 10 30
e 10 33
e 10 34
e 10 38
e 10 42
e 10 46
e 10 47
e 10 48
e 10 53
e 10 54
e 10 55
e 10 57
e 10 58
e 10 61
e 10 64
e 11 12
e 11 16
e 11 24
e 11 25
e 11 33
e 11 34
e 11 43
e 11 44
e 11 47
e 11 49
e 11 51
e 11 53
e 11 54
e 11 56
e 11 59
e 11 64
e 12 13
e 12 21
e 12 23
e 12 29
e 12 31
e 12 33
e 12 34
e 12 35
e 12 40
e 12 49
e 12 50
e 12 52
e 12 53
e 12 54
e 12 57
e 12 62
e 12 64
e 13 22
e 13 23
e 13 24
e 13 26
e 13 27
e 13 30
e 13 31
e 13 32
e 13 34
e 13 35
e 13 36
e 13 37
e 13 39
e 13 40
e 13 41
e 13 45
e 13 49
e 13 50
e 13 51
e 13 55
e 13 56
e 13 57
e 13 58
e 13 59
e 13 60
e 14 15
e 14 17
e 14 19
e 14 20
e 14 21
e 14 22
e 14 23
e 14 24
e 14 29
e 14 35
e 14 36
e 14 38
e 14 42
e 14 43
e 14 44
e 14 53
e 14 55
e 14 56
e 14 58
e 14 60
e 14 64
e 15 16
e 15 19
e 15 21
e 15 22
e 15 23
e 15 24
e 15 25
e 15 27
e 15 28
e 15 33
e 15 36
e 15 37
e 15 46
e 15 47
e 15 55
e 15 56
e 15 57
e 15 60
e 15 63
e 15 64
e 16 21
e 16 23
e 16 24
e 16 26
e 16 27
e 16 33
e 16 38
e 16 39
e 16 42
e 16 47
e 16 48
e 16 52
e 16 55
e 16 56
e 16 57
e 16 58
e 16 59
e 16 61
e 17 18
e 17 26
e 17 27
e 17 28
e 17 29
e 17 32
e 17 33
e 17 38
e 17 40
e 17 43
e 17 45
e 17 46
e 17 48
e 17 49
e 17 53
e 17 54
e 17 55
e 17 56
e 18 22
e 18 26
e 18 27
e 18 32
e 18 33
e 18 34
e 18 35
e 18 37
e 18 38
e 18 39
e 18 44
e 18 48
e 18 49
e 18 54
e 18 57
e 18 59
e 18 62
e 18 63
e 19 21
e 19 22
e 19 23
e 19 28
e 19 29
e 19 36
e 19 42
e 19 43
e 19 46
e 19 50
e 19 51
e 19 59
e 19 60
e 19 61
e 19 64
e 20 21
e 20 30
e 20 32
e 20 35
e 20 36
e 20 37
e 20 39
e 20 40
e 20 44
e 20 45
e 20 48
e 20 50
e 20 53
e 20 58
e 20 63
e 20 64
e 21 24
e 21 27
e 21 29
e 21 31
e 21 33
e 21 35
e 21 36
e 21 43
e 21 44
e 21 52
e 21 58
e 21 62
e 22 23
e 22 24
e 22 25
e 22 30
e 22 31
e 22 39
e 22 41
e 22 44
e 22 45
e 22 52
e 22 54
e 22 55
e 22 57
e 22 58
e 22 59
e 22 60
e 22 62
e 22 64
e 23 25
e 23 26
e 23 31
e 23 34
e 23 35
e 23 38
e 23 39
e 23 40
e 23 47
e 23 48
e 23 49
e 23 50
e 23 52
e 23 57
e 23 60
e 23 64
e 24 25
e 24 27
e 24 30
e 24 31
e 24 33
e 24 42
e 24 43
e 24 44
e 24 45
e 24 47
e 24 49
e 24 51
e 24 55
e 24 59
e 25 31
e 25 34
e 25 37
e 25 41
e 25 43
e 25 44
e 25 46
e 25 47
e 25 48
e 25 49
e 25 51
e 25 52
e 25 56
e 25 57
e 25 58
e 25 63
e 26 28
e 26 32
e 26 34
e 26 37
e 26 38
e 26 39
e 26 40
e 26 45
e 26 46
e 26 47
e 26 51
e 26 52
e 26 54
e 26 58
e 26 60
e 26 63
e 27 30
e 27 32
e 27 33
e 27 34
e 27 36
e 27 38
e 27 39
e 27 41
e 27 46
e 27 48
e 27 49
e 27 56
e 28 29
e 28 36
e 28 40
e 28 45
e 28 46
e 28 47
e 28 50
e 28 51
e 28 54
e 28 55
e 28 61
e 29 31
e 29 38
e 29 43
e 29 50
e 29 51
e 29 52
e 29 53
e 29 55
e 29 56
e 29 61
e 29 62
e 30 31
e 30 32
e 30 38
e 30 45
e 30 46
e 30 50
e 30 53
e 30 55
e 30 59
e 30 63
e 31 34
e 31 44
e 31 45
e 31 48
e 31 52
e 31 55
e 31 59
e 31 60
e 31 61
e 31 62
e 32 37
e 32 48
e 32 49
e 32 50
e 32 51
e 32 53
e 32 54
e 32 58
e 32 60
e 32 63
e 33 34
e 33 35
e 33 37
e 33 38
e 33 53
e 33 54
e 33 59
e 33 64
e 34 36
e 34 39
e 34 41
e 34 48
e 34 53
e 34 54
e 34 56
e 34 63
e 34 64
e 35 36
e 35 37
e 35 38
e 35 40
e 35 41
e 35 44
e 35 45
e 35 49
e 35 50
e 35 57
e 35 58
e 35 59
e 35 61
e 35 63
e 36 39
e 36 41
e 36 42
e 36 44
e 36 46
e 36 47
e 36 55
e 36 56
e 36 58
e 36 59
e 37 38
e 37 39
e 37 45
e 37 46
e 37 48
e 37 51
e 37 56
e 37 57
e 37 58
e 37 59
e 37 60
e 37 63
e 37 64
e 38 39
e 38 43
e 38 46
e 38 47
e 38 52
e 38 53
e 38 55
e 38 56
e 38 59
e 39 41
e 39 44
e 39 45
e 39 47
e 39 48
e 39 52
e 39 54
e 39 56
e 39 57
e 39 62
e 39 64
e 40 41
e 40 42
e 40 43
e 40 45
e 40 46
e 40 49
e 40 50
e 40 54
e 40 57
e 40 60
e 40 62
e 41 42
e 41 43
e 41 45
e 41 52
e 41 56
e 41 58
e 41 60
e 41 61
e 41 62
e 41 63
e 42 43
e 42 46
e 42 48
e 42 55
e 42 57
e 42 58
e 42 59
e 42 60
e 42 61
e 42 62
e 43 44
e 43 47
e 43 49
e 43 51
e 43 53
e 43 55
e 43 56
e 43 60
e 43 62
e 44 47
e 44 49
e 44 51
e 44 54
e 44 57
e 44 58
e 44 60
e 44 61
e 44 62
e 45 46
e 45 48
e 45 54
e 45 55
e 45 59
e 45 61
e 45 63
e 45 64
e 46 54
e 46 56
e 46 57
e 46 59
e 46 63
e 47 49
e 47 51
e 47 52
e 47 55
e 48 49
e 48 55
e 48 57
e 48 58
e 48 61
e 48 64
e 49 50
e 49 51
e 49 52
e 49 57
e 49 64
e 50 51
e 50 53
e 50 57
e 50 61
e 50 63
e 51 58
e 51 60
e 51 61
e 51 62
e 52 58
e 52 62
e 52 64
e 53 54
e 53 55
e 53 56
e 53 63
e 53 64
e 54 57
e 54 62
e 54 64
e 55 56
e 55 57
e 55 58
e 55 59
e 55 61
e 56 57
e 56 59
e 56 63
e 57 58
e 57 61
e 57 62
e 57 63
e 58 60
e 58 61
e 60 61
e 60 62
e 60 64
e 61 63
